predicate fzn_circuit(array [int] of var int: x);
array [1..4] of int: X_INTRODUCED_10_ = [43,10,17,21];
array [1..4] of int: X_INTRODUCED_15_ = [36,17,10,15];
array [1..4] of int: X_INTRODUCED_20_ = [33,21,15,10];
array [1..4] of int: X_INTRODUCED_25_ = [0,53,46,43];
array [1..5] of int: X_INTRODUCED_28_ = [1,-1,-1,-1,-1];
var 1..4: X_INTRODUCED_0_;
var 1..4: X_INTRODUCED_1_;
var 1..4: X_INTRODUCED_2_;
var 1..4: X_INTRODUCED_3_;
var 30..165: obj:: output_var:: is_defined_var;
var 10..43: X_INTRODUCED_11_ ::var_is_introduced :: is_defined_var;
var 0..960: X_INTRODUCED_12_ ::var_is_introduced :: is_defined_var;
var 10..1003: X_INTRODUCED_13_ ::var_is_introduced :: is_defined_var;
var 43..283: X_INTRODUCED_14_ ::var_is_introduced :: is_defined_var;
var 10..36: X_INTRODUCED_16_ ::var_is_introduced :: is_defined_var;
var 0..960: X_INTRODUCED_17_ ::var_is_introduced :: is_defined_var;
var 10..996: X_INTRODUCED_18_ ::var_is_introduced :: is_defined_var;
var 36..276: X_INTRODUCED_19_ ::var_is_introduced :: is_defined_var;
var 10..33: X_INTRODUCED_21_ ::var_is_introduced :: is_defined_var;
var 0..960: X_INTRODUCED_22_ ::var_is_introduced :: is_defined_var;
var 10..993: X_INTRODUCED_23_ ::var_is_introduced :: is_defined_var;
var 33..273: X_INTRODUCED_24_ ::var_is_introduced :: is_defined_var;
var 0..53: X_INTRODUCED_26_ ::var_is_introduced :: is_defined_var;
array [1..4] of var int: pred:: output_array([1..4]) = [X_INTRODUCED_0_,X_INTRODUCED_1_,X_INTRODUCED_2_,X_INTRODUCED_3_];
array [1..4] of var int: arrival_time:: output_array([1..4]) = [0,X_INTRODUCED_14_,X_INTRODUCED_19_,X_INTRODUCED_24_];
constraint fzn_circuit(pred):: domain;
constraint array_int_element(X_INTRODUCED_1_,X_INTRODUCED_10_,X_INTRODUCED_11_):: defines_var(X_INTRODUCED_11_);
constraint array_var_int_element(X_INTRODUCED_1_,arrival_time,X_INTRODUCED_12_):: defines_var(X_INTRODUCED_12_);
constraint int_max(X_INTRODUCED_13_,43,X_INTRODUCED_14_):: defines_var(X_INTRODUCED_14_);
constraint array_int_element(X_INTRODUCED_2_,X_INTRODUCED_15_,X_INTRODUCED_16_):: defines_var(X_INTRODUCED_16_);
constraint array_var_int_element(X_INTRODUCED_2_,arrival_time,X_INTRODUCED_17_):: defines_var(X_INTRODUCED_17_);
constraint int_max(X_INTRODUCED_18_,36,X_INTRODUCED_19_):: defines_var(X_INTRODUCED_19_);
constraint array_int_element(X_INTRODUCED_3_,X_INTRODUCED_20_,X_INTRODUCED_21_):: defines_var(X_INTRODUCED_21_);
constraint array_var_int_element(X_INTRODUCED_3_,arrival_time,X_INTRODUCED_22_):: defines_var(X_INTRODUCED_22_);
constraint int_max(X_INTRODUCED_23_,33,X_INTRODUCED_24_):: defines_var(X_INTRODUCED_24_);
constraint array_int_element(X_INTRODUCED_0_,X_INTRODUCED_25_,X_INTRODUCED_26_):: defines_var(X_INTRODUCED_26_);
constraint int_lin_eq(X_INTRODUCED_28_,[obj,X_INTRODUCED_26_,X_INTRODUCED_11_,X_INTRODUCED_16_,X_INTRODUCED_21_],0):: defines_var(obj);
constraint int_lin_eq([1,1,-1],[X_INTRODUCED_12_,X_INTRODUCED_11_,X_INTRODUCED_13_],0):: defines_var(X_INTRODUCED_13_);
constraint int_lin_eq([1,1,-1],[X_INTRODUCED_17_,X_INTRODUCED_16_,X_INTRODUCED_18_],0):: defines_var(X_INTRODUCED_18_);
constraint int_lin_eq([1,1,-1],[X_INTRODUCED_22_,X_INTRODUCED_21_,X_INTRODUCED_23_],0):: defines_var(X_INTRODUCED_23_);
solve :: seq_search([int_search([X_INTRODUCED_11_,X_INTRODUCED_16_,X_INTRODUCED_21_],max_regret,indomain_min,complete),int_search(pred,dom_w_deg,indomain_random,complete),int_search(arrival_time,input_order,indomain_max,complete)]) minimize obj;
